data/processed_heuristic-threshold/instances/1/6/ds_713_courier_1656/pairwise.tsp
NAME: ds_713_courier_1656
TYPE: TSP
COMMENT: nil
DIMENSION: 7
EDGE_WEIGHT_TYPE: EXPLICIT
EDGE_WEIGHT_FORMAT: FULL_MATRIX
EDGE_WEIGHT_SECTION
9999 3653 5990 5462 2595 3301 4139 
3653 9999 2656 7287 1161 637 487 
5990 2656 9999 9917 3426 2739 2280 
5462 7287 9917 9999 6912 7411 7637 
2595 1161 3426 6912 9999 707 1624 
3301 637 2739 7411 707 9999 1006 
4139 487 2280 7637 1624 1006 9999 
