data/processed_heuristic-threshold/instances/1/6/ds_713_courier_1656/pairwise.sol
7
0 3 1 6 2 5 4 
